results/real/sos1/mar_19_408.in
Version identifier: 22.1.0.0 | 2022-03-09 | 1a383f8ce
CPXPARAM_Threads                                 1
CPXPARAM_MIP_Strategy_VariableSelect             3
CPXPARAM_TimeLimit                               599.99994217400001
1 of 1 MIP starts provided solutions.
MIP start 'm1' defined initial solution with objective 290.0000.
Tried aggregator 2 times.
MIP Presolve eliminated 44 rows and 409 columns.
MIP Presolve added 36 rows and 9 columns.
MIP Presolve modified 43 coefficients.
Aggregator did 9 substitutions.
Reduced MIP has 2852 rows, 4896 columns, and 128680 nonzeros.
Reduced MIP has 4896 binaries, 0 generals, 0 SOSs, and 0 indicators.
Presolve time = 0.16 sec. (246.71 ticks)
Probing time = 0.02 sec. (17.90 ticks)
Tried aggregator 1 time.
Detecting symmetries...
MIP Presolve modified 12 coefficients.
Reduced MIP has 2852 rows, 4896 columns, and 128821 nonzeros.
Reduced MIP has 4896 binaries, 0 generals, 0 SOSs, and 0 indicators.
Presolve time = 0.12 sec. (192.64 ticks)
Probing time = 0.02 sec. (17.90 ticks)
Clique table members: 2030.
MIP emphasis: balance optimality and feasibility.
MIP search method: dynamic search.
Parallel mode: none, using 1 thread.
Root relaxation solution time = 0.07 sec. (79.43 ticks)

        Nodes                                         Cuts/
   Node  Left     Objective  IInf  Best Integer    Best Bound    ItCnt     Gap

*     0+    0                          290.0000    83436.0000              --- 
      0     0      408.0000   141      290.0000      408.0000      937   40.69%
*     0+    0                          408.0000      408.0000             0.00%
      0     0        cutoff            408.0000      408.0000      937    0.00%
Elapsed time = 0.59 sec. (765.44 ticks, tree = 0.01 MB, solutions = 2)

Root node processing (before b&c):
  Real time             =    0.59 sec. (765.65 ticks)
Sequential b&c:
  Real time             =    0.00 sec. (0.00 ticks)
                          ------------
Total (root+branch&cut) =    0.59 sec. (765.65 ticks)
Primal:	408
Dual:	408
Status:	Optimal
Time:	0.61
Sequence:
	4
	1
	9
	9
	11
	9
	6
	4
	9
	10
	0
	7
	4
	9
	9
	9
	1
	9
	7
	9
	9
	9
	9
	6
	0
	1
	4
	8
	1
	9
	7
	9
	9
	1
	9
	1
	9
	4
	6
	9
	9
	7
	9
	9
	1
	9
	4
	7
	9
	1
	9
	1
	4
	7
	9
	9
	6
	9
	1
	9
	9
	6
	9
	7
	9
	9
	5
	4
	1
	9
	9
	7
	9
	1
	9
	5
	9
	7
	9
	9
	6
	9
	9
	7
	9
	4
	9
	6
	9
	7
	9
	6
	8
	1
	9
	3
	0
	1
	9
	9
	6
	9
	9
	4
	6
	0
	7
	4
	1
	4
	0
	1
	4
	7
	0
	4
	5
	0
	1
	4
	1
	4
	1
	4
	7
	0
	1
	4
	1
	4
	4
	1
	4
	9
	7
	4
	1
	0
	4
	4
	1
	4
	4
	1
	4
	0
	4
	4
	1
	4
	1
	4
	0
	6
	9
	7
	0
	5
	9
	4
	1
	9
	6
	0
	9
	1
	0
	6
	9
	7
	9
	1
	9
	6
	9
	4
	1
	9
	3
	4
	1
	4
	4
	1
	4
	11
	4
	4
	1
	4
	4
	11
	4
	1
	9
	6
	9
	1
	9
	1
	0
	1
	9
	1
	9
	4
	9
	7
	9
	9
	1
	9
	0
	10
	9
	7
	9
	10
	9
	1
	4
	4
	9
	9
	10
	9
	9
	10
	4
	4
	9
	7
	9
	6
	9
	5
	9
	5
	9
	5
	9
	5
	9
	5
	0
	7
	9
	1
	0
	6
	9
	8
	7
	9
	1
	4
	6
	9
	9
	3
	9
	9
	5
	9
	6
	8
	1
	9
	9
	4
	4
	0
	6
	9
	3
	0
	10
	4
	5
	0
	6
	4
	1
	0
	6
	9
	7
	0
	9
	6
	9
	1
	9
	6
	9
	5
	9
	1
	4
	11
	9
	4
	4
	9
	9
	7
	9
	4
	1
	4
	4
	9
	4
	4
	9
	4
	1
	4
	4
	1
	9
	6
	9
	9
	5
	9
	9
	4
	6
	9
	4
	1
	9
	9
	6
	9
	9
	1
	9
	6
	9
	9
	3
	9
	9
	1
	9
	8
	3
	9
	5
	9
	9
	1
	4
	7
	0
	4
	9
	6
	9
	7
	9
	1
	9
	9
	6
	9
	9
	1
	9
	1
	9
	4
	6
	9
	1
	9
	6
	9
	5
	9
	6
	9
	1
	9
	0
	1
	4
	1
	9
	1
	4
	1
	9
	1
	9
	7
	9
	9
	6
	9
	1
	0
	1
	9
	1
	0
