results/real/sos1/mar_19_408.out
Version identifier: 22.1.1.0 | 2022-11-28 | 9160aff4d
CPXPARAM_Threads                                 1
CPXPARAM_MIP_Strategy_VariableSelect             3
CPXPARAM_TimeLimit                               599.99999271499996
1 of 1 MIP starts provided solutions.
MIP start 'm1' defined initial solution with objective 147.0000.
Tried aggregator 1 time.
MIP Presolve eliminated 16 rows and 408 columns.
MIP Presolve modified 34 coefficients.
Reduced MIP has 2445 rows, 4896 columns, and 122959 nonzeros.
Reduced MIP has 4896 binaries, 0 generals, 0 SOSs, and 0 indicators.
Presolve time = 0.07 sec. (190.00 ticks)
Probing time = 0.01 sec. (17.89 ticks)
Tried aggregator 1 time.
Detecting symmetries...
MIP Presolve modified 10 coefficients.
Reduced MIP has 2445 rows, 4896 columns, and 123087 nonzeros.
Reduced MIP has 4896 binaries, 0 generals, 0 SOSs, and 0 indicators.
Presolve time = 0.07 sec. (183.66 ticks)
Probing time = 0.01 sec. (17.90 ticks)
Clique table members: 1623.
MIP emphasis: balance optimality and feasibility.
MIP search method: dynamic search.
Parallel mode: none, using 1 thread.
Root relaxation solution time = 0.03 sec. (46.69 ticks)

        Nodes                                         Cuts/
   Node  Left     Objective  IInf  Best Integer    Best Bound    ItCnt     Gap

*     0+    0                          147.0000    83436.0000              --- 
*     0     0      integral     0      408.0000      408.0000      601    0.00%
Elapsed time = 0.24 sec. (540.33 ticks, tree = 0.00 MB, solutions = 2)

Root node processing (before b&c):
  Real time             =    0.24 sec. (540.54 ticks)
Sequential b&c:
  Real time             =    0.00 sec. (0.00 ticks)
                          ------------
Total (root+branch&cut) =    0.24 sec. (540.54 ticks)
Primal:	408
Dual:	408
Status:	Optimal
Time:	0.25
Sequence:
	10
	9
	9
	6
	0
	3
	9
	6
	0
	9
	9
	7
	6
	9
	1
	9
	9
	3
	4
	8
	1
	4
	1
	8
	9
	9
	7
	8
	9
	9
	9
	9
	4
	7
	9
	9
	9
	6
	9
	9
	9
	1
	7
	9
	1
	8
	9
	4
	7
	9
	1
	1
	9
	9
	3
	6
	9
	0
	9
	9
	9
	9
	4
	9
	9
	1
	4
	7
	9
	6
	9
	9
	4
	9
	7
	6
	9
	9
	9
	1
	4
	9
	4
	7
	9
	6
	1
	5
	9
	7
	9
	9
	9
	9
	9
	7
	9
	9
	6
	9
	9
	7
	9
	6
	5
	0
	4
	1
	4
	11
	0
	1
	4
	4
	0
	10
	7
	4
	1
	4
	4
	10
	1
	4
	7
	1
	4
	1
	4
	4
	1
	1
	4
	4
	9
	7
	1
	0
	4
	6
	1
	4
	4
	1
	6
	0
	4
	1
	1
	4
	0
	7
	4
	0
	4
	9
	0
	7
	9
	4
	9
	4
	9
	7
	1
	9
	0
	1
	9
	6
	9
	0
	7
	4
	9
	9
	9
	4
	3
	4
	1
	6
	4
	1
	4
	4
	0
	3
	4
	1
	4
	4
	9
	4
	11
	0
	9
	1
	4
	1
	7
	4
	10
	1
	4
	9
	9
	4
	11
	4
	9
	9
	0
	1
	9
	9
	9
	9
	9
	4
	9
	9
	9
	7
	9
	4
	6
	1
	9
	7
	0
	9
	4
	6
	9
	7
	9
	6
	1
	0
	9
	6
	9
	9
	9
	9
	9
	6
	4
	0
	9
	4
	0
	6
	9
	9
	4
	10
	5
	9
	5
	5
	9
	7
	5
	9
	0
	6
	1
	4
	4
	11
	1
	0
	9
	5
	6
	9
	4
	0
	6
	7
	9
	4
	0
	9
	6
	9
	1
	1
	1
	9
	1
	1
	9
	1
	1
	1
	4
	1
	4
	1
	4
	4
	1
	1
	1
	4
	1
	1
	1
	9
	1
	6
	9
	9
	4
	9
	9
	9
	6
	9
	1
	1
	9
	1
	9
	1
	6
	9
	0
	4
	6
	9
	9
	1
	9
	9
	9
	9
	9
	9
	6
	9
	9
	9
	9
	5
	9
	1
	9
	9
	7
	1
	0
	9
	4
	9
	4
	7
	9
	9
	5
	5
	9
	5
	6
	1
	9
	5
	6
	9
	9
	9
	6
	1
	9
	4
	6
	9
	1
	9
	9
	9
	8
	10
	6
	7
	9
	4
	9
	9
	4
	3
	4
	9
	5
	9
	5
	5
	9
	4
	1
	1
	1
	9
	1
	0
